%nproc=4
%mem=8GB
#p opt freq b3lyp/6-31g(d)

optimized_conformer_1

0 1
C 3.432512 0.176069 -0.379802
C 2.067771 -0.321909 -0.008723
O 1.820222 -0.981755 0.992490
O 1.164407 0.067025 -0.991637
C -0.153046 -0.279497 -0.677699
C -0.662882 -1.431246 -1.285893
C -1.978691 -1.817173 -1.037962
C -2.782980 -1.049066 -0.196681
C -2.275722 0.112606 0.394883
C -0.952939 0.516388 0.155052
C -0.416280 1.765255 0.757185
O -1.294559 2.355178 1.591131
O 0.677777 2.262743 0.564539
H 4.138029 -0.074661 0.417473
H 3.762232 -0.303034 -1.304857
H 3.413324 1.262858 -0.493970
H -0.035759 -2.028469 -1.941856
H -2.377392 -2.717773 -1.498704
H -3.809172 -1.352062 -0.001173
H -2.926430 0.697680 1.040942
H -0.810421 3.140844 1.921349

